Reading model...
...model read.
creating competitive generators file...
...competitive generators recorded.
Loading data...
.. day-ahead data with real-time VRE data read.
Compiling instance...
...instance created.
Creating Offer Mitigation (model will solve as dispatch if TRUE)...
...storage offer mitigation file created
LPStorage
running bound DA offers as LP
Solving...

Welcome to IBM(R) ILOG(R) CPLEX(R) Interactive Optimizer 12.9.0.0
  with Simplex, Mixed Integer & Barrier Optimizers
5725-A06 5725-A29 5724-Y48 5724-Y49 5724-Y54 5724-Y55 5655-Y21
Copyright IBM Corp. 1988, 2019.  All Rights Reserved.

Type 'help' for a list of available commands.
Type 'help' followed by a command name for more
information on commands.

CPLEX> Logfile 'cplex.log' closed.
Logfile 'C:\Users\Luke\Desktop\competitiveMPEC_1.16\logs\tmp1tadfqdk.cplex.log' open.
CPLEX> New value for parallel optimization mode: -1
CPLEX> New value for mixed integer optimality gap tolerance: 0.01
CPLEX> New value for feasibility tolerance: 1e-05
CPLEX> New value for deterministic time limit in ticks: 250000
CPLEX> Problem 'C:\Users\Luke\Desktop\competitiveMPEC_1.16\logs\tmpufakwv74.pyomo.lp' read.
Read time = 0.05 sec. (2.96 ticks)
CPLEX> Problem name         : C:\Users\Luke\Desktop\competitiveMPEC_1.16\logs\tmpufakwv74.pyomo.lp
Objective sense      : Minimize
Variables            :   25839  [Nneg: 49,  Box: 21422,  Free: 4368]
Objective nonzeros   :    2531
Linear constraints   :   27321  [Less: 13837,  Greater: 4416,  Equal: 9068]
  Nonzeros           :   87420
  RHS nonzeros       :   12139

Variables            : Min LB: -5000.000        Max UB: 5000.000       
Objective nonzeros   : Min   : 0.3265260        Max   : 124.0997       
Linear constraints   :
  Nonzeros           : Min   : 0.8500000        Max   : 3000.000       
  RHS nonzeros       : Min   : 0.2833333        Max   : 90000.00       
CPLEX> CPXPARAM_Parallel                                -1
CPXPARAM_Simplex_Tolerances_Feasibility          1.0000000000000001e-05
CPXPARAM_DetTimeLimit                            250000
CPXPARAM_MIP_Tolerances_MIPGap                   0.01
Parallel mode: opportunistic, using up to 24 threads for concurrent optimization.
Tried aggregator 1 time.
LP Presolve eliminated 22025 rows and 17622 columns.
Aggregator did 748 substitutions.
Reduced LP has 4548 rows, 7469 columns, and 19833 nonzeros.
Presolve time = 0.05 sec. (27.50 ticks)

Iteration log . . .
Iteration:     1   Dual objective     =         -6804.309547
Perturbation started.
Iteration:   101   Dual objective     =         -6804.309547
Iteration:   392   Dual objective     =         -1058.429509
Iteration:   717   Dual objective     =         -1058.109983
Iteration:  1048   Dual objective     =         -1057.809651
Iteration:  1384   Dual objective     =         -1057.536002
Iteration:  1743   Dual objective     =         -1057.234675
Iteration:  2060   Dual objective     =         -1057.021993
Iteration:  2349   Dual objective     =         -1056.971590
Iteration:  2611   Dual objective     =         -1056.945960
Iteration:  2843   Dual objective     =         -1056.914231
Iteration:  3068   Dual objective     =          2997.864261
Iteration:  3312   Dual objective     =         12490.154255
Iteration:  3587   Dual objective     =         41451.549114
Iteration:  3873   Dual objective     =         57940.495177
Removing perturbation.

Dual simplex solved model.


Dual simplex - Optimal:  Objective =  5.8665114693e+04
Solution time =    0.13 sec.  Iterations = 4159 (0)
Deterministic time = 84.04 ticks  (672.35 ticks/sec)

CPLEX> Solution written to file 'C:\Users\Luke\Desktop\competitiveMPEC_1.16\logs\tmpptxskdps.cplex.sol'.
CPLEX> Exporting results... 
